(declare-rel state (Bool Int Int Int Int Bool Bool Bool Bool Int Int Int Int Int Int Int Bool Bool Bool Int Int Int Int Int Int Int Int Int Int Int Int Int Int Bool Bool Bool Int Int Int Bool Bool Bool))
(declare-var |_OK_| Bool)
(declare-var |_OK_.next| Bool)
(declare-var |a| Int)
(declare-var |a.next| Int)
(declare-var |b| Int)
(declare-var |b.next| Int)
(declare-var |call_First.First| Int)
(declare-var |call_First.First.next| Int)
(declare-var |call_First.flby| Int)
(declare-var |call_First.flby.next| Int)
(declare-var |call_FirstB.First| Bool)
(declare-var |call_FirstB.First.next| Bool)
(declare-var |call_FirstB.flby| Bool)
(declare-var |call_FirstB.flby.next| Bool)
(declare-var |call_Sofar.Sofar| Bool)
(declare-var |call_Sofar.Sofar.next| Bool)
(declare-var |call_Sofar.flby| Bool)
(declare-var |call_Sofar.flby.next| Bool)
(declare-var |call__PRODUCER_CONSUMMER_.a| Int)
(declare-var |call__PRODUCER_CONSUMMER_.a.next| Int)
(declare-var |call__PRODUCER_CONSUMMER_.b| Int)
(declare-var |call__PRODUCER_CONSUMMER_.b.next| Int)
(declare-var |call__PRODUCER_CONSUMMER_.flby| Int)
(declare-var |call__PRODUCER_CONSUMMER_.flby.next| Int)
(declare-var |call__PRODUCER_CONSUMMER_.flby2| Int)
(declare-var |call__PRODUCER_CONSUMMER_.flby2.next| Int)
(declare-var |call__PRODUCER_CONSUMMER_.flby3| Int)
(declare-var |call__PRODUCER_CONSUMMER_.flby3.next| Int)
(declare-var |call__PRODUCER_CONSUMMER_.flby4| Int)
(declare-var |call__PRODUCER_CONSUMMER_.flby4.next| Int)
(declare-var |call__PRODUCER_CONSUMMER_.flby5| Int)
(declare-var |call__PRODUCER_CONSUMMER_.flby5.next| Int)
(declare-var |call__PRODUCER_CONSUMMER_.garde1| Bool)
(declare-var |call__PRODUCER_CONSUMMER_.garde1.next| Bool)
(declare-var |call__PRODUCER_CONSUMMER_.garde2| Bool)
(declare-var |call__PRODUCER_CONSUMMER_.garde2.next| Bool)
(declare-var |call__PRODUCER_CONSUMMER_.garde3| Bool)
(declare-var |call__PRODUCER_CONSUMMER_.garde3.next| Bool)
(declare-var |call__PRODUCER_CONSUMMER_.i| Int)
(declare-var |call__PRODUCER_CONSUMMER_.i.next| Int)
(declare-var |call__PRODUCER_CONSUMMER_.ite| Int)
(declare-var |call__PRODUCER_CONSUMMER_.ite.next| Int)
(declare-var |call__PRODUCER_CONSUMMER_.ite10| Int)
(declare-var |call__PRODUCER_CONSUMMER_.ite10.next| Int)
(declare-var |call__PRODUCER_CONSUMMER_.ite11| Int)
(declare-var |call__PRODUCER_CONSUMMER_.ite11.next| Int)
(declare-var |call__PRODUCER_CONSUMMER_.ite2| Int)
(declare-var |call__PRODUCER_CONSUMMER_.ite2.next| Int)
(declare-var |call__PRODUCER_CONSUMMER_.ite3| Int)
(declare-var |call__PRODUCER_CONSUMMER_.ite3.next| Int)
(declare-var |call__PRODUCER_CONSUMMER_.ite4| Int)
(declare-var |call__PRODUCER_CONSUMMER_.ite4.next| Int)
(declare-var |call__PRODUCER_CONSUMMER_.ite5| Int)
(declare-var |call__PRODUCER_CONSUMMER_.ite5.next| Int)
(declare-var |call__PRODUCER_CONSUMMER_.ite6| Int)
(declare-var |call__PRODUCER_CONSUMMER_.ite6.next| Int)
(declare-var |call__PRODUCER_CONSUMMER_.ite7| Int)
(declare-var |call__PRODUCER_CONSUMMER_.ite7.next| Int)
(declare-var |call__PRODUCER_CONSUMMER_.ite8| Int)
(declare-var |call__PRODUCER_CONSUMMER_.ite8.next| Int)
(declare-var |call__PRODUCER_CONSUMMER_.ite9| Int)
(declare-var |call__PRODUCER_CONSUMMER_.ite9.next| Int)
(declare-var |call__PRODUCER_CONSUMMER_.o1| Int)
(declare-var |call__PRODUCER_CONSUMMER_.o1.next| Int)
(declare-var |call__PRODUCER_CONSUMMER_.o2| Int)
(declare-var |call__PRODUCER_CONSUMMER_.o2.next| Int)
(declare-var |call_excludes3.excludes| Bool)
(declare-var |call_excludes3.excludes.next| Bool)
(declare-var |env| Bool)
(declare-var |env.next| Bool)
(declare-var |flby| Bool)
(declare-var |flby.next| Bool)
(declare-var |i| Int)
(declare-var |i.next| Int)
(declare-var |o1| Int)
(declare-var |o1.next| Int)
(declare-var |o2| Int)
(declare-var |o2.next| Int)
(declare-var |param_a_init| Int)
(declare-var |param_etat1| Bool)
(declare-var |param_etat1.next| Bool)
(declare-var |param_etat2| Bool)
(declare-var |param_etat2.next| Bool)
(declare-var |param_etat3| Bool)
(declare-var |param_etat3.next| Bool)

(define-fun .init () Bool
(let ((.def_126 (not param_etat3)))
(let ((.def_125 (= call__PRODUCER_CONSUMMER_.ite11 call__PRODUCER_CONSUMMER_.ite10)))
(let ((.def_127 (or .def_125 .def_126)))
(let ((.def_128 (and flby .def_127)))
(let ((.def_121 (= call__PRODUCER_CONSUMMER_.ite2 call__PRODUCER_CONSUMMER_.ite)))
(let ((.def_56 (not param_etat1)))
(let ((.def_122 (or .def_56 .def_121)))
(let ((.def_129 (and .def_122 .def_128)))
(let ((.def_117 (= call__PRODUCER_CONSUMMER_.ite9 call__PRODUCER_CONSUMMER_.ite8)))
(let ((.def_47 (not param_etat2)))
(let ((.def_118 (or .def_47 .def_117)))
(let ((.def_130 (and .def_118 .def_129)))
(let ((.def_114 (= call__PRODUCER_CONSUMMER_.a call__PRODUCER_CONSUMMER_.flby)))
(let ((.def_131 (and .def_114 .def_130)))
(let ((.def_113 (= call__PRODUCER_CONSUMMER_.flby2 0)))
(let ((.def_132 (and .def_113 .def_131)))
(let ((.def_112 (= call__PRODUCER_CONSUMMER_.flby3 param_a_init)))
(let ((.def_133 (and .def_112 .def_132)))
(let ((.def_111 (= call__PRODUCER_CONSUMMER_.flby4 0)))
(let ((.def_134 (and .def_111 .def_133)))
(let ((.def_110 (= call__PRODUCER_CONSUMMER_.flby5 0)))
(let ((.def_135 (and .def_110 .def_134)))
(let ((.def_104 (or param_etat1 param_etat2)))
(let ((.def_105 (or param_etat3 .def_104)))
(let ((.def_106 (not .def_105)))
(let ((.def_108 (or call_excludes3.excludes .def_106)))
(let ((.def_109 (= call_Sofar.flby .def_108)))
(let ((.def_136 (and .def_109 .def_135)))
(let ((.def_107 (= call_FirstB.flby .def_106)))
(let ((.def_137 (and .def_107 .def_136)))
(let ((.def_103 (= call_First.flby param_a_init)))
(let ((.def_138 (and .def_103 .def_137)))
(let ((.def_81 (not env)))
(let ((.def_78 (<= 0 i)))
(let ((.def_80 (and .def_78 flby)))
(let ((.def_82 (or .def_80 .def_81)))
(let ((.def_84 (= .def_82 _OK_)))
(let ((.def_77 (= call__PRODUCER_CONSUMMER_.i i)))
(let ((.def_85 (and .def_77 .def_84)))
(let ((.def_75 (= call__PRODUCER_CONSUMMER_.b b)))
(let ((.def_86 (and .def_75 .def_85)))
(let ((.def_73 (= call__PRODUCER_CONSUMMER_.a a)))
(let ((.def_87 (and .def_73 .def_86)))
(let ((.def_71 (= call__PRODUCER_CONSUMMER_.o1 o1)))
(let ((.def_88 (and .def_71 .def_87)))
(let ((.def_69 (= call__PRODUCER_CONSUMMER_.o2 o2)))
(let ((.def_89 (and .def_69 .def_88)))
(let ((.def_64 (and call_FirstB.First call_Sofar.Sofar)))
(let ((.def_62 (<= call_First.First 0)))
(let ((.def_63 (not .def_62)))
(let ((.def_65 (and .def_63 .def_64)))
(let ((.def_67 (= .def_65 env)))
(let ((.def_90 (and .def_67 .def_89)))
(let ((.def_58 (= call__PRODUCER_CONSUMMER_.ite6 call__PRODUCER_CONSUMMER_.ite7)))
(let ((.def_59 (or param_etat1 .def_58)))
(let ((.def_55 (= call__PRODUCER_CONSUMMER_.ite7 call__PRODUCER_CONSUMMER_.ite3)))
(let ((.def_57 (or .def_55 .def_56)))
(let ((.def_60 (and .def_57 .def_59)))
(let ((.def_91 (and .def_60 .def_90)))
(let ((.def_50 (= call__PRODUCER_CONSUMMER_.ite6 call__PRODUCER_CONSUMMER_.ite5)))
(let ((.def_51 (or param_etat2 .def_50)))
(let ((.def_46 (= call__PRODUCER_CONSUMMER_.ite6 call__PRODUCER_CONSUMMER_.ite4)))
(let ((.def_48 (or .def_46 .def_47)))
(let ((.def_52 (and .def_48 .def_51)))
(let ((.def_92 (and .def_52 .def_91)))
(let ((.def_43 (= call__PRODUCER_CONSUMMER_.flby call__PRODUCER_CONSUMMER_.i)))
(let ((.def_93 (and .def_43 .def_92)))
(let ((.def_40 (= call__PRODUCER_CONSUMMER_.flby2 call__PRODUCER_CONSUMMER_.b)))
(let ((.def_94 (and .def_40 .def_93)))
(let ((.def_37 (= call__PRODUCER_CONSUMMER_.a call__PRODUCER_CONSUMMER_.flby3)))
(let ((.def_95 (and .def_37 .def_94)))
(let ((.def_34 (= call__PRODUCER_CONSUMMER_.flby4 call__PRODUCER_CONSUMMER_.o1)))
(let ((.def_96 (and .def_34 .def_95)))
(let ((.def_31 (= call__PRODUCER_CONSUMMER_.flby5 call__PRODUCER_CONSUMMER_.o2)))
(let ((.def_97 (and .def_31 .def_96)))
(let ((.def_24 (and param_etat2 param_etat3)))
(let ((.def_22 (and param_etat1 param_etat3)))
(let ((.def_20 (and param_etat1 param_etat2)))
(let ((.def_23 (or .def_20 .def_22)))
(let ((.def_25 (or .def_23 .def_24)))
(let ((.def_26 (not .def_25)))
(let ((.def_28 (= .def_26 call_excludes3.excludes)))
(let ((.def_98 (and .def_28 .def_97)))
(let ((.def_17 (= call_Sofar.flby call_Sofar.Sofar)))
(let ((.def_99 (and .def_17 .def_98)))
(let ((.def_14 (= call_FirstB.flby call_FirstB.First)))
(let ((.def_100 (and .def_14 .def_99)))
(let ((.def_11 (= call_First.flby call_First.First)))
(let ((.def_101 (and .def_11 .def_100)))
(let ((.def_139 (and .def_101 .def_138)))
.def_139)))))))))))))))))))))))))))))))))))))))))))))))))))))))))))))))))))))))))))))))))))))))))))

(define-fun .trans () Bool
(let ((.def_330 (and param_etat1 param_etat2.next)))
(let ((.def_331 (not .def_330)))
(let ((.def_328 (= o1 o1.next)))
(let ((.def_325 (* (- 1) o1.next)))
(let ((.def_326 (+ o1 .def_325)))
(let ((.def_327 (= .def_326 (- 1))))
(let ((.def_329 (or .def_327 .def_328)))
(let ((.def_332 (or .def_329 .def_331)))
(let ((.def_333 (= flby.next .def_332)))
(let ((.def_322 (= call__PRODUCER_CONSUMMER_.o2 call__PRODUCER_CONSUMMER_.ite11.next)))
(let ((.def_323 (or param_etat3.next .def_322)))
(let ((.def_320 (= call__PRODUCER_CONSUMMER_.ite11.next call__PRODUCER_CONSUMMER_.ite10.next)))
(let ((.def_319 (not param_etat3.next)))
(let ((.def_321 (or .def_319 .def_320)))
(let ((.def_324 (and .def_321 .def_323)))
(let ((.def_334 (and .def_324 .def_333)))
(let ((.def_316 (= call__PRODUCER_CONSUMMER_.i call__PRODUCER_CONSUMMER_.ite2.next)))
(let ((.def_317 (or param_etat1.next .def_316)))
(let ((.def_314 (= call__PRODUCER_CONSUMMER_.ite2.next call__PRODUCER_CONSUMMER_.ite.next)))
(let ((.def_187 (not param_etat1.next)))
(let ((.def_315 (or .def_187 .def_314)))
(let ((.def_318 (and .def_315 .def_317)))
(let ((.def_335 (and .def_318 .def_334)))
(let ((.def_311 (= call__PRODUCER_CONSUMMER_.o1 call__PRODUCER_CONSUMMER_.ite9.next)))
(let ((.def_312 (or param_etat2.next .def_311)))
(let ((.def_309 (= call__PRODUCER_CONSUMMER_.ite9.next call__PRODUCER_CONSUMMER_.ite8.next)))
(let ((.def_178 (not param_etat2.next)))
(let ((.def_310 (or .def_178 .def_309)))
(let ((.def_313 (and .def_310 .def_312)))
(let ((.def_336 (and .def_313 .def_335)))
(let ((.def_306 (= call__PRODUCER_CONSUMMER_.i call__PRODUCER_CONSUMMER_.ite.next)))
(let ((.def_307 (or call__PRODUCER_CONSUMMER_.garde1.next .def_306)))
(let ((.def_302 (* (- 1) call__PRODUCER_CONSUMMER_.ite.next)))
(let ((.def_303 (+ call__PRODUCER_CONSUMMER_.i .def_302)))
(let ((.def_304 (= .def_303 1)))
(let ((.def_292 (not call__PRODUCER_CONSUMMER_.garde1.next)))
(let ((.def_305 (or .def_292 .def_304)))
(let ((.def_308 (and .def_305 .def_307)))
(let ((.def_337 (and .def_308 .def_336)))
(let ((.def_294 (= call__PRODUCER_CONSUMMER_.b call__PRODUCER_CONSUMMER_.ite3.next)))
(let ((.def_295 (or call__PRODUCER_CONSUMMER_.garde1.next .def_294)))
(let ((.def_289 (* (- 1) call__PRODUCER_CONSUMMER_.ite3.next)))
(let ((.def_290 (+ call__PRODUCER_CONSUMMER_.b .def_289)))
(let ((.def_291 (= .def_290 (- 1))))
(let ((.def_293 (or .def_291 .def_292)))
(let ((.def_296 (and .def_293 .def_295)))
(let ((.def_285 (* (- 1) call__PRODUCER_CONSUMMER_.ite4.next)))
(let ((.def_286 (+ call__PRODUCER_CONSUMMER_.b .def_285)))
(let ((.def_287 (= .def_286 1)))
(let ((.def_272 (not call__PRODUCER_CONSUMMER_.garde2.next)))
(let ((.def_288 (or .def_272 .def_287)))
(let ((.def_297 (and .def_288 .def_296)))
(let ((.def_283 (= call__PRODUCER_CONSUMMER_.b call__PRODUCER_CONSUMMER_.ite4.next)))
(let ((.def_284 (or call__PRODUCER_CONSUMMER_.garde2.next .def_283)))
(let ((.def_298 (and .def_284 .def_297)))
(let ((.def_279 (* (- 1) call__PRODUCER_CONSUMMER_.ite5.next)))
(let ((.def_280 (+ call__PRODUCER_CONSUMMER_.b .def_279)))
(let ((.def_281 (= .def_280 1)))
(let ((.def_263 (not call__PRODUCER_CONSUMMER_.garde3.next)))
(let ((.def_282 (or .def_263 .def_281)))
(let ((.def_299 (and .def_282 .def_298)))
(let ((.def_277 (= call__PRODUCER_CONSUMMER_.b call__PRODUCER_CONSUMMER_.ite5.next)))
(let ((.def_278 (or call__PRODUCER_CONSUMMER_.garde3.next .def_277)))
(let ((.def_300 (and .def_278 .def_299)))
(let ((.def_338 (and .def_300 .def_337)))
(let ((.def_274 (= call__PRODUCER_CONSUMMER_.o1 call__PRODUCER_CONSUMMER_.ite8.next)))
(let ((.def_275 (or call__PRODUCER_CONSUMMER_.garde2.next .def_274)))
(let ((.def_269 (* (- 1) call__PRODUCER_CONSUMMER_.ite8.next)))
(let ((.def_270 (+ call__PRODUCER_CONSUMMER_.o1 .def_269)))
(let ((.def_271 (= .def_270 (- 1))))
(let ((.def_273 (or .def_271 .def_272)))
(let ((.def_276 (and .def_273 .def_275)))
(let ((.def_339 (and .def_276 .def_338)))
(let ((.def_265 (= call__PRODUCER_CONSUMMER_.o2 call__PRODUCER_CONSUMMER_.ite10.next)))
(let ((.def_266 (or call__PRODUCER_CONSUMMER_.garde3.next .def_265)))
(let ((.def_260 (* (- 1) call__PRODUCER_CONSUMMER_.ite10.next)))
(let ((.def_261 (+ call__PRODUCER_CONSUMMER_.o2 .def_260)))
(let ((.def_262 (= .def_261 (- 1))))
(let ((.def_264 (or .def_262 .def_263)))
(let ((.def_267 (and .def_264 .def_266)))
(let ((.def_340 (and .def_267 .def_339)))
(let ((.def_255 (<= 1 call__PRODUCER_CONSUMMER_.i)))
(let ((.def_257 (= .def_255 call__PRODUCER_CONSUMMER_.garde1.next)))
(let ((.def_341 (and .def_257 .def_340)))
(let ((.def_250 (<= 1 call__PRODUCER_CONSUMMER_.b)))
(let ((.def_254 (= .def_250 call__PRODUCER_CONSUMMER_.garde2.next)))
(let ((.def_342 (and .def_254 .def_341)))
(let ((.def_252 (= .def_250 call__PRODUCER_CONSUMMER_.garde3.next)))
(let ((.def_343 (and .def_252 .def_342)))
(let ((.def_248 (= call__PRODUCER_CONSUMMER_.flby.next call__PRODUCER_CONSUMMER_.ite2.next)))
(let ((.def_344 (and .def_248 .def_343)))
(let ((.def_246 (= call__PRODUCER_CONSUMMER_.flby2.next call__PRODUCER_CONSUMMER_.ite7.next)))
(let ((.def_345 (and .def_246 .def_344)))
(let ((.def_245 (= call__PRODUCER_CONSUMMER_.a call__PRODUCER_CONSUMMER_.flby3.next)))
(let ((.def_346 (and .def_245 .def_345)))
(let ((.def_244 (= call__PRODUCER_CONSUMMER_.flby4.next call__PRODUCER_CONSUMMER_.ite9.next)))
(let ((.def_347 (and .def_244 .def_346)))
(let ((.def_242 (= call__PRODUCER_CONSUMMER_.flby5.next call__PRODUCER_CONSUMMER_.ite11.next)))
(let ((.def_348 (and .def_242 .def_347)))
(let ((.def_235 (or param_etat2.next param_etat1.next)))
(let ((.def_236 (or param_etat3.next .def_235)))
(let ((.def_237 (not .def_236)))
(let ((.def_238 (or call_excludes3.excludes.next .def_237)))
(let ((.def_239 (and call_Sofar.Sofar .def_238)))
(let ((.def_240 (= call_Sofar.flby.next .def_239)))
(let ((.def_349 (and .def_240 .def_348)))
(let ((.def_234 (= call_FirstB.First call_FirstB.flby.next)))
(let ((.def_350 (and .def_234 .def_349)))
(let ((.def_233 (= call_First.First call_First.flby.next)))
(let ((.def_351 (and .def_233 .def_350)))
(let ((.def_211 (not env.next)))
(let ((.def_208 (<= 0 i.next)))
(let ((.def_210 (and .def_208 flby.next)))
(let ((.def_212 (or .def_210 .def_211)))
(let ((.def_214 (= .def_212 _OK_.next)))
(let ((.def_207 (= call__PRODUCER_CONSUMMER_.i.next i.next)))
(let ((.def_215 (and .def_207 .def_214)))
(let ((.def_205 (= call__PRODUCER_CONSUMMER_.b.next b.next)))
(let ((.def_216 (and .def_205 .def_215)))
(let ((.def_203 (= call__PRODUCER_CONSUMMER_.a.next a.next)))
(let ((.def_217 (and .def_203 .def_216)))
(let ((.def_201 (= call__PRODUCER_CONSUMMER_.o1.next o1.next)))
(let ((.def_218 (and .def_201 .def_217)))
(let ((.def_199 (= call__PRODUCER_CONSUMMER_.o2.next o2.next)))
(let ((.def_219 (and .def_199 .def_218)))
(let ((.def_194 (and call_FirstB.First.next call_Sofar.Sofar.next)))
(let ((.def_192 (<= call_First.First.next 0)))
(let ((.def_193 (not .def_192)))
(let ((.def_195 (and .def_193 .def_194)))
(let ((.def_197 (= .def_195 env.next)))
(let ((.def_220 (and .def_197 .def_219)))
(let ((.def_189 (= call__PRODUCER_CONSUMMER_.ite6.next call__PRODUCER_CONSUMMER_.ite7.next)))
(let ((.def_190 (or param_etat1.next .def_189)))
(let ((.def_186 (= call__PRODUCER_CONSUMMER_.ite3.next call__PRODUCER_CONSUMMER_.ite7.next)))
(let ((.def_188 (or .def_186 .def_187)))
(let ((.def_191 (and .def_188 .def_190)))
(let ((.def_221 (and .def_191 .def_220)))
(let ((.def_181 (= call__PRODUCER_CONSUMMER_.ite6.next call__PRODUCER_CONSUMMER_.ite5.next)))
(let ((.def_182 (or param_etat2.next .def_181)))
(let ((.def_177 (= call__PRODUCER_CONSUMMER_.ite4.next call__PRODUCER_CONSUMMER_.ite6.next)))
(let ((.def_179 (or .def_177 .def_178)))
(let ((.def_183 (and .def_179 .def_182)))
(let ((.def_222 (and .def_183 .def_221)))
(let ((.def_174 (= call__PRODUCER_CONSUMMER_.flby.next call__PRODUCER_CONSUMMER_.i.next)))
(let ((.def_223 (and .def_174 .def_222)))
(let ((.def_171 (= call__PRODUCER_CONSUMMER_.flby2.next call__PRODUCER_CONSUMMER_.b.next)))
(let ((.def_224 (and .def_171 .def_223)))
(let ((.def_168 (= call__PRODUCER_CONSUMMER_.flby3.next call__PRODUCER_CONSUMMER_.a.next)))
(let ((.def_225 (and .def_168 .def_224)))
(let ((.def_165 (= call__PRODUCER_CONSUMMER_.flby4.next call__PRODUCER_CONSUMMER_.o1.next)))
(let ((.def_226 (and .def_165 .def_225)))
(let ((.def_162 (= call__PRODUCER_CONSUMMER_.flby5.next call__PRODUCER_CONSUMMER_.o2.next)))
(let ((.def_227 (and .def_162 .def_226)))
(let ((.def_155 (and param_etat2.next param_etat3.next)))
(let ((.def_153 (and param_etat1.next param_etat3.next)))
(let ((.def_151 (and param_etat2.next param_etat1.next)))
(let ((.def_154 (or .def_151 .def_153)))
(let ((.def_156 (or .def_154 .def_155)))
(let ((.def_157 (not .def_156)))
(let ((.def_159 (= .def_157 call_excludes3.excludes.next)))
(let ((.def_228 (and .def_159 .def_227)))
(let ((.def_148 (= call_Sofar.flby.next call_Sofar.Sofar.next)))
(let ((.def_229 (and .def_148 .def_228)))
(let ((.def_145 (= call_FirstB.flby.next call_FirstB.First.next)))
(let ((.def_230 (and .def_145 .def_229)))
(let ((.def_142 (= call_First.flby.next call_First.First.next)))
(let ((.def_231 (and .def_142 .def_230)))
(let ((.def_81 (not env)))
(let ((.def_78 (<= 0 i)))
(let ((.def_80 (and .def_78 flby)))
(let ((.def_82 (or .def_80 .def_81)))
(let ((.def_84 (= .def_82 _OK_)))
(let ((.def_77 (= call__PRODUCER_CONSUMMER_.i i)))
(let ((.def_85 (and .def_77 .def_84)))
(let ((.def_75 (= call__PRODUCER_CONSUMMER_.b b)))
(let ((.def_86 (and .def_75 .def_85)))
(let ((.def_73 (= call__PRODUCER_CONSUMMER_.a a)))
(let ((.def_87 (and .def_73 .def_86)))
(let ((.def_71 (= call__PRODUCER_CONSUMMER_.o1 o1)))
(let ((.def_88 (and .def_71 .def_87)))
(let ((.def_69 (= call__PRODUCER_CONSUMMER_.o2 o2)))
(let ((.def_89 (and .def_69 .def_88)))
(let ((.def_64 (and call_FirstB.First call_Sofar.Sofar)))
(let ((.def_62 (<= call_First.First 0)))
(let ((.def_63 (not .def_62)))
(let ((.def_65 (and .def_63 .def_64)))
(let ((.def_67 (= .def_65 env)))
(let ((.def_90 (and .def_67 .def_89)))
(let ((.def_58 (= call__PRODUCER_CONSUMMER_.ite6 call__PRODUCER_CONSUMMER_.ite7)))
(let ((.def_59 (or param_etat1 .def_58)))
(let ((.def_56 (not param_etat1)))
(let ((.def_55 (= call__PRODUCER_CONSUMMER_.ite7 call__PRODUCER_CONSUMMER_.ite3)))
(let ((.def_57 (or .def_55 .def_56)))
(let ((.def_60 (and .def_57 .def_59)))
(let ((.def_91 (and .def_60 .def_90)))
(let ((.def_50 (= call__PRODUCER_CONSUMMER_.ite6 call__PRODUCER_CONSUMMER_.ite5)))
(let ((.def_51 (or param_etat2 .def_50)))
(let ((.def_47 (not param_etat2)))
(let ((.def_46 (= call__PRODUCER_CONSUMMER_.ite6 call__PRODUCER_CONSUMMER_.ite4)))
(let ((.def_48 (or .def_46 .def_47)))
(let ((.def_52 (and .def_48 .def_51)))
(let ((.def_92 (and .def_52 .def_91)))
(let ((.def_43 (= call__PRODUCER_CONSUMMER_.flby call__PRODUCER_CONSUMMER_.i)))
(let ((.def_93 (and .def_43 .def_92)))
(let ((.def_40 (= call__PRODUCER_CONSUMMER_.flby2 call__PRODUCER_CONSUMMER_.b)))
(let ((.def_94 (and .def_40 .def_93)))
(let ((.def_37 (= call__PRODUCER_CONSUMMER_.a call__PRODUCER_CONSUMMER_.flby3)))
(let ((.def_95 (and .def_37 .def_94)))
(let ((.def_34 (= call__PRODUCER_CONSUMMER_.flby4 call__PRODUCER_CONSUMMER_.o1)))
(let ((.def_96 (and .def_34 .def_95)))
(let ((.def_31 (= call__PRODUCER_CONSUMMER_.flby5 call__PRODUCER_CONSUMMER_.o2)))
(let ((.def_97 (and .def_31 .def_96)))
(let ((.def_24 (and param_etat2 param_etat3)))
(let ((.def_22 (and param_etat1 param_etat3)))
(let ((.def_20 (and param_etat1 param_etat2)))
(let ((.def_23 (or .def_20 .def_22)))
(let ((.def_25 (or .def_23 .def_24)))
(let ((.def_26 (not .def_25)))
(let ((.def_28 (= .def_26 call_excludes3.excludes)))
(let ((.def_98 (and .def_28 .def_97)))
(let ((.def_17 (= call_Sofar.flby call_Sofar.Sofar)))
(let ((.def_99 (and .def_17 .def_98)))
(let ((.def_14 (= call_FirstB.flby call_FirstB.First)))
(let ((.def_100 (and .def_14 .def_99)))
(let ((.def_11 (= call_First.flby call_First.First)))
(let ((.def_101 (and .def_11 .def_100)))
(let ((.def_232 (and .def_101 .def_231)))
(let ((.def_352 (and .def_232 .def_351)))
.def_352)))))))))))))))))))))))))))))))))))))))))))))))))))))))))))))))))))))))))))))))))))))))))))))))))))))))))))))))))))))))))))))))))))))))))))))))))))))))))))))))))))))))))))))))))))))))))))))))))))))))))))))))))))))))))))))))))))))

(define-fun .property () Bool
_OK_)

(rule (=> .init (state |_OK_| |a| |b| |call_First.First| |call_First.flby| |call_FirstB.First| |call_FirstB.flby| |call_Sofar.Sofar| |call_Sofar.flby| |call__PRODUCER_CONSUMMER_.a| |call__PRODUCER_CONSUMMER_.b| |call__PRODUCER_CONSUMMER_.flby| |call__PRODUCER_CONSUMMER_.flby2| |call__PRODUCER_CONSUMMER_.flby3| |call__PRODUCER_CONSUMMER_.flby4| |call__PRODUCER_CONSUMMER_.flby5| |call__PRODUCER_CONSUMMER_.garde1| |call__PRODUCER_CONSUMMER_.garde2| |call__PRODUCER_CONSUMMER_.garde3| |call__PRODUCER_CONSUMMER_.i| |call__PRODUCER_CONSUMMER_.ite| |call__PRODUCER_CONSUMMER_.ite10| |call__PRODUCER_CONSUMMER_.ite11| |call__PRODUCER_CONSUMMER_.ite2| |call__PRODUCER_CONSUMMER_.ite3| |call__PRODUCER_CONSUMMER_.ite4| |call__PRODUCER_CONSUMMER_.ite5| |call__PRODUCER_CONSUMMER_.ite6| |call__PRODUCER_CONSUMMER_.ite7| |call__PRODUCER_CONSUMMER_.ite8| |call__PRODUCER_CONSUMMER_.ite9| |call__PRODUCER_CONSUMMER_.o1| |call__PRODUCER_CONSUMMER_.o2| |call_excludes3.excludes| |env| |flby| |i| |o1| |o2| |param_etat1| |param_etat2| |param_etat3|)))
(rule (=> (and (state |_OK_| |a| |b| |call_First.First| |call_First.flby| |call_FirstB.First| |call_FirstB.flby| |call_Sofar.Sofar| |call_Sofar.flby| |call__PRODUCER_CONSUMMER_.a| |call__PRODUCER_CONSUMMER_.b| |call__PRODUCER_CONSUMMER_.flby| |call__PRODUCER_CONSUMMER_.flby2| |call__PRODUCER_CONSUMMER_.flby3| |call__PRODUCER_CONSUMMER_.flby4| |call__PRODUCER_CONSUMMER_.flby5| |call__PRODUCER_CONSUMMER_.garde1| |call__PRODUCER_CONSUMMER_.garde2| |call__PRODUCER_CONSUMMER_.garde3| |call__PRODUCER_CONSUMMER_.i| |call__PRODUCER_CONSUMMER_.ite| |call__PRODUCER_CONSUMMER_.ite10| |call__PRODUCER_CONSUMMER_.ite11| |call__PRODUCER_CONSUMMER_.ite2| |call__PRODUCER_CONSUMMER_.ite3| |call__PRODUCER_CONSUMMER_.ite4| |call__PRODUCER_CONSUMMER_.ite5| |call__PRODUCER_CONSUMMER_.ite6| |call__PRODUCER_CONSUMMER_.ite7| |call__PRODUCER_CONSUMMER_.ite8| |call__PRODUCER_CONSUMMER_.ite9| |call__PRODUCER_CONSUMMER_.o1| |call__PRODUCER_CONSUMMER_.o2| |call_excludes3.excludes| |env| |flby| |i| |o1| |o2| |param_etat1| |param_etat2| |param_etat3|) .trans) (state |_OK_.next| |a.next| |b.next| |call_First.First.next| |call_First.flby.next| |call_FirstB.First.next| |call_FirstB.flby.next| |call_Sofar.Sofar.next| |call_Sofar.flby.next| |call__PRODUCER_CONSUMMER_.a.next| |call__PRODUCER_CONSUMMER_.b.next| |call__PRODUCER_CONSUMMER_.flby.next| |call__PRODUCER_CONSUMMER_.flby2.next| |call__PRODUCER_CONSUMMER_.flby3.next| |call__PRODUCER_CONSUMMER_.flby4.next| |call__PRODUCER_CONSUMMER_.flby5.next| |call__PRODUCER_CONSUMMER_.garde1.next| |call__PRODUCER_CONSUMMER_.garde2.next| |call__PRODUCER_CONSUMMER_.garde3.next| |call__PRODUCER_CONSUMMER_.i.next| |call__PRODUCER_CONSUMMER_.ite.next| |call__PRODUCER_CONSUMMER_.ite10.next| |call__PRODUCER_CONSUMMER_.ite11.next| |call__PRODUCER_CONSUMMER_.ite2.next| |call__PRODUCER_CONSUMMER_.ite3.next| |call__PRODUCER_CONSUMMER_.ite4.next| |call__PRODUCER_CONSUMMER_.ite5.next| |call__PRODUCER_CONSUMMER_.ite6.next| |call__PRODUCER_CONSUMMER_.ite7.next| |call__PRODUCER_CONSUMMER_.ite8.next| |call__PRODUCER_CONSUMMER_.ite9.next| |call__PRODUCER_CONSUMMER_.o1.next| |call__PRODUCER_CONSUMMER_.o2.next| |call_excludes3.excludes.next| |env.next| |flby.next| |i.next| |o1.next| |o2.next| |param_etat1.next| |param_etat2.next| |param_etat3.next|)))
(query (and (state |_OK_| |a| |b| |call_First.First| |call_First.flby| |call_FirstB.First| |call_FirstB.flby| |call_Sofar.Sofar| |call_Sofar.flby| |call__PRODUCER_CONSUMMER_.a| |call__PRODUCER_CONSUMMER_.b| |call__PRODUCER_CONSUMMER_.flby| |call__PRODUCER_CONSUMMER_.flby2| |call__PRODUCER_CONSUMMER_.flby3| |call__PRODUCER_CONSUMMER_.flby4| |call__PRODUCER_CONSUMMER_.flby5| |call__PRODUCER_CONSUMMER_.garde1| |call__PRODUCER_CONSUMMER_.garde2| |call__PRODUCER_CONSUMMER_.garde3| |call__PRODUCER_CONSUMMER_.i| |call__PRODUCER_CONSUMMER_.ite| |call__PRODUCER_CONSUMMER_.ite10| |call__PRODUCER_CONSUMMER_.ite11| |call__PRODUCER_CONSUMMER_.ite2| |call__PRODUCER_CONSUMMER_.ite3| |call__PRODUCER_CONSUMMER_.ite4| |call__PRODUCER_CONSUMMER_.ite5| |call__PRODUCER_CONSUMMER_.ite6| |call__PRODUCER_CONSUMMER_.ite7| |call__PRODUCER_CONSUMMER_.ite8| |call__PRODUCER_CONSUMMER_.ite9| |call__PRODUCER_CONSUMMER_.o1| |call__PRODUCER_CONSUMMER_.o2| |call_excludes3.excludes| |env| |flby| |i| |o1| |o2| |param_etat1| |param_etat2| |param_etat3|) (not .property)))
